c 10 promenne 10 klauzuli
c weights 3 9 8 3 6 2 4 5 4 6
p cnf 10 10
-2 3 4 5 -6 8 9 10 0
-1 3 4 -5 -7 -8 -9 0
-4 5 6 7 -9 10 0
2 -3 -4 6 -7 -8 10 0
1 2 -3 4 -5 -6 -8 9 -10 0
3 6 7 -9 0
-1 -2 -3 -4 5 6 7 0
-1 2 -3 6 -8 9 0
1 2 -3 4 6 -7 -8 0
-1 -3 -4 -5 6 7 -8 9 10 0
